304403
303594
303594
303594
303594
300844
298508
298508
298508
298508
298508
298277
291721
290887
290887
279934
279934
277603
277603
277603
277603
277603
277603
277603
276039
276039
274937
274937
273331
273331
273331
269180
269180
269022
268745
267749
265624
265624
265624
265624
265469
265023
262148
262148
262148
261874
261874
261874
260994
260214
259896
259053
258346
258346
256149
256149
252440
252440
252440
252440
249220
248464
248464
248464
248464
248464
248464
247184
247184
247184
246980
246631
246631
245700
245700
245101
245101
245055
245055
244885
243973
242898
241016
241016
240698
240698
239206
239206
239206
238892
235947
235947
235947
235947
235947
235947
235947
235947
235947
235505
